\ENCODING=ISO-8859-1
\Problem name: ilog.cplex

Maximize
 obj: 695 x(0)#0 + 601 x(1)#1 + 648 x(2)#2 + 914 x(3)#3 + 892 x(4)#4
      + 897 x(5)#5 + 606 x(6)#6 + 977 x(7)#7 + 665 x(8)#8 + 1258 x(9)#9
      + 928 x(10)#10 + 701 x(11)#11 + 526 x(12)#12 + 925 x(13)#13
      + 860 x(14)#14 + 1148 x(15)#15 + 749 x(16)#16 + 672 x(17)#17
      + 813 x(18)#18 + 860 x(19)#19 + 564 x(20)#20 + 1079 x(21)#21
      + 904 x(22)#22 + 510 x(23)#23 + 1113 x(24)#24 + 1081 x(25)#25
      + 914 x(26)#26 + 843 x(27)#27 + 701 x(28)#28 + 822 x(29)#29
      + 821 x(30)#30 + 766 x(31)#31 + 922 x(32)#32 + 794 x(33)#33
      + 564 x(34)#34 + 612 x(35)#35 + 785 x(36)#36 + 692 x(37)#37
      + 639 x(38)#38 + 787 x(39)#39 + 684 x(40)#40 + 962 x(41)#41
      + 645 x(42)#42 + 862 x(43)#43 + 658 x(44)#44 + 462 x(45)#45
      + 729 x(46)#46 + 662 x(47)#47 + 1103 x(48)#48 + 772 x(49)#49
      + 942 x(50)#50 + 811 x(51)#51 + 669 x(52)#52 + 846 x(53)#53
      + 802 x(54)#54 + 1132 x(55)#55 + 388 x(56)#56 + 798 x(57)#57
      + 664 x(58)#58 + 944 x(59)#59 + 687 x(60)#60 + 568 x(61)#61
      + 572 x(62)#62 + 1002 x(63)#63 + 881 x(64)#64 + 871 x(65)#65
      + 605 x(66)#66 + 684 x(67)#67 + 988 x(68)#68 + 943 x(69)#69
      + 452 x(70)#70 + 707 x(71)#71 + 727 x(72)#72 + 919 x(73)#73
      + 602 x(74)#74 + 915 x(75)#75 + 757 x(76)#76 + 560 x(77)#77
      + 741 x(78)#78 + 1045 x(79)#79 + 831 x(80)#80 + 868 x(81)#81
      + 593 x(82)#82 + 935 x(83)#83 + 911 x(84)#84 + 587 x(85)#85
      + 498 x(86)#86 + 525 x(87)#87 + 971 x(88)#88 + 687 x(89)#89
      + 895 x(90)#90 + 478 x(91)#91 + 763 x(92)#92 + 729 x(93)#93
      + 690 x(94)#94 + 730 x(95)#95 + 950 x(96)#96 + 1180 x(97)#97
      + 1023 x(98)#98 + 885 x(99)#99
Subject To
 c1: 919 x(0)#0 + 871 x(1)#1 + 228 x(2)#2 + 796 x(3)#3 + 165 x(4)#4
     + 339 x(5)#5 + 347 x(6)#6 + 285 x(7)#7 + 148 x(8)#8 + 900 x(9)#9
     + 859 x(10)#10 + 647 x(11)#11 + 313 x(12)#12 + 478 x(13)#13 + 520 x(14)#14
     + 674 x(15)#15 + 256 x(16)#16 + 192 x(17)#17 + 66 x(18)#18 + 797 x(19)#19
     + 277 x(20)#20 + 847 x(21)#21 + 571 x(22)#22 + 319 x(23)#23 + 868 x(24)#24
     + 937 x(25)#25 + 830 x(26)#26 + 827 x(27)#27 + 306 x(28)#28 + 6 x(29)#29
     + 600 x(30)#30 + 925 x(31)#31 + 736 x(32)#32 + 583 x(33)#33 + 128 x(34)#34
     + 832 x(35)#35 + 250 x(36)#36 + 531 x(37)#37 + 318 x(38)#38 + 570 x(39)#39
     + 476 x(40)#40 + 213 x(41)#41 + 756 x(42)#42 + 510 x(43)#43 + 335 x(44)#44
     + 440 x(45)#45 + 190 x(46)#46 + 696 x(47)#47 + 902 x(48)#48 + 518 x(49)#49
     + 955 x(50)#50 + 222 x(51)#51 + 900 x(52)#52 + 394 x(53)#53 + 650 x(54)#54
     + 619 x(55)#55 + 185 x(56)#56 + 740 x(57)#57 + 187 x(58)#58 + 187 x(59)#59
     + 281 x(60)#60 + 102 x(61)#61 + 578 x(62)#62 + 494 x(63)#63 + 75 x(64)#64
     + 616 x(65)#65 + 348 x(66)#66 + 812 x(67)#67 + 985 x(68)#68 + 928 x(69)#69
     + 327 x(70)#70 + 860 x(71)#71 + 708 x(72)#72 + 511 x(73)#73 + 35 x(74)#74
     + 933 x(75)#75 + 685 x(76)#76 + 875 x(77)#77 + 546 x(78)#78 + 793 x(79)#79
     + 643 x(80)#80 + 856 x(81)#81 + 961 x(82)#82 + 252 x(83)#83 + 504 x(84)#84
     + 167 x(85)#85 + 475 x(86)#86 + 416 x(87)#87 + 11 x(88)#88 + 330 x(89)#89
     + 866 x(90)#90 + 390 x(91)#91 + 283 x(92)#92 + 100 x(93)#93 + 581 x(94)#94
     + 860 x(95)#95 + 816 x(96)#96 + 403 x(97)#97 + 744 x(98)#98 + 826 x(99)#99
     <= 13278
 c2: 673 x(0)#0 + 442 x(1)#1 + 727 x(2)#2 + 426 x(3)#3 + 597 x(4)#4
     + 560 x(5)#5 + 184 x(6)#6 + 827 x(7)#7 + 746 x(8)#8 + 786 x(9)#9
     + 778 x(10)#10 + 508 x(11)#11 + 447 x(12)#12 + 121 x(13)#13 + 314 x(14)#14
     + 896 x(15)#15 + 594 x(16)#16 + 900 x(17)#17 + 656 x(18)#18 + 637 x(19)#19
     + 337 x(20)#20 + 875 x(21)#21 + 187 x(22)#22 + 117 x(23)#23 + 281 x(24)#24
     + 209 x(25)#25 + 441 x(26)#26 + 681 x(27)#27 + 16 x(28)#28 + 871 x(29)#29
     + 692 x(30)#30 + 33 x(31)#31 + 555 x(32)#32 + 328 x(33)#33 + 613 x(34)#34
     + 157 x(35)#35 + 678 x(36)#36 + 856 x(37)#37 + 50 x(38)#38 + 104 x(39)#39
     + 303 x(40)#40 + 355 x(41)#41 + 824 x(42)#42 + 377 x(43)#43 + 297 x(44)#44
     + 255 x(45)#45 + 839 x(46)#46 + 464 x(47)#47 + 841 x(48)#48 + 137 x(49)#49
     + 239 x(50)#50 + 971 x(51)#51 + 475 x(52)#52 + 737 x(53)#53 + 757 x(54)#54
     + 582 x(55)#55 + 642 x(56)#56 + 516 x(57)#57 + 198 x(58)#58 + 69 x(59)#59
     + 122 x(60)#60 + 677 x(61)#61 + 696 x(62)#62 + 665 x(63)#63 + 501 x(64)#64
     + 491 x(65)#65 + 523 x(66)#66 + 699 x(67)#67 + 503 x(68)#68 + 696 x(69)#69
     + 75 x(70)#70 + 588 x(71)#71 + 843 x(72)#72 + 575 x(73)#73 + 826 x(74)#74
     + 88 x(75)#75 + 497 x(76)#76 + 163 x(77)#77 + 487 x(78)#78 + 342 x(79)#79
     + 854 x(80)#80 + 144 x(81)#81 + 17 x(82)#82 + 488 x(83)#83 + 754 x(84)#84
     + 610 x(85)#85 + 850 x(86)#86 + 379 x(87)#87 + 903 x(88)#88 + 991 x(89)#89
     + 332 x(90)#90 + 54 x(91)#91 + 62 x(92)#92 + 277 x(93)#93 + 388 x(94)#94
     + 26 x(95)#95 + 554 x(96)#96 + 714 x(97)#97 + 504 x(98)#98 + 622 x(99)#99
     <= 12340
 c3: 945 x(0)#0 + 104 x(1)#1 + 290 x(2)#2 + 335 x(3)#3 + 950 x(4)#4
     + 390 x(5)#5 + 137 x(6)#6 + 17 x(7)#7 + 136 x(8)#8 + 781 x(9)#9
     + 268 x(10)#10 + 753 x(11)#11 + 872 x(12)#12 + 527 x(13)#13 + 63 x(14)#14
     + 718 x(15)#15 + 821 x(16)#16 + 615 x(17)#17 + 25 x(18)#18 + 635 x(19)#19
     + 535 x(20)#20 + 15 x(21)#21 + 602 x(22)#22 + 125 x(23)#23 + 549 x(24)#24
     + 854 x(25)#25 + 456 x(26)#26 + 957 x(27)#27 + 688 x(28)#28 + 199 x(29)#29
     + 812 x(30)#30 + 413 x(31)#31 + 892 x(32)#32 + 368 x(33)#33 + 86 x(34)#34
     + 546 x(35)#35 + 913 x(36)#36 + 87 x(37)#37 + 390 x(38)#38 + 533 x(39)#39
     + 85 x(40)#40 + 844 x(41)#41 + 317 x(42)#42 + 457 x(43)#43 + 72 x(44)#44
     + 238 x(45)#45 + 583 x(46)#46 + 412 x(47)#47 + 804 x(48)#48 + 207 x(49)#49
     + 505 x(50)#50 + 782 x(51)#51 + 643 x(52)#52 + 551 x(53)#53 + 210 x(54)#54
     + 763 x(55)#55 + 383 x(56)#56 + 857 x(57)#57 + 483 x(58)#58 + 440 x(59)#59
     + 279 x(60)#60 + 488 x(61)#61 + 215 x(62)#62 + 784 x(63)#63 + 782 x(64)#64
     + 39 x(65)#65 + 985 x(66)#66 + 187 x(67)#67 + 955 x(68)#68 + 603 x(69)#69
     + 887 x(70)#70 + 923 x(71)#71 + 537 x(72)#72 + 281 x(73)#73 + 898 x(74)#74
     + 54 x(75)#75 + 28 x(76)#76 + 183 x(77)#77 + 66 x(78)#78 + 474 x(79)#79
     + 689 x(80)#80 + 35 x(81)#81 + 572 x(82)#82 + 860 x(83)#83 + 498 x(84)#84
     + 741 x(85)#85 + 99 x(86)#86 + 295 x(87)#87 + 843 x(88)#88 + 766 x(89)#89
     + 879 x(90)#90 + 693 x(91)#91 + 103 x(92)#92 + 6 x(93)#93 + 384 x(94)#94
     + 135 x(95)#95 + 842 x(96)#96 + 934 x(97)#97 + 561 x(98)#98 + 836 x(99)#99
     <= 12364
 c4: 165 x(0)#0 + 522 x(1)#1 + 445 x(2)#2 + 627 x(3)#3 + 395 x(4)#4
     + 820 x(5)#5 + 330 x(6)#6 + 985 x(7)#7 + 255 x(8)#8 + 840 x(9)#9
     + 976 x(10)#10 + 568 x(11)#11 + 473 x(12)#12 + 547 x(13)#13 + 864 x(14)#14
     + 214 x(15)#15 + 308 x(16)#16 + 842 x(17)#17 + 188 x(18)#18 + 345 x(19)#19
     + 529 x(20)#20 + 789 x(21)#21 + 643 x(22)#22 + 75 x(23)#23 + 874 x(24)#24
     + 824 x(25)#25 + 41 x(26)#26 + 322 x(27)#27 + 77 x(28)#28 + 597 x(29)#29
     + 751 x(30)#30 + 604 x(31)#31 + 334 x(32)#32 + 3 x(33)#33 + 856 x(34)#34
     + 381 x(35)#35 + 188 x(36)#36 + 916 x(37)#37 + 831 x(38)#38 + 456 x(39)#39
     + 663 x(40)#40 + 873 x(41)#41 + 217 x(42)#42 + 975 x(43)#43 + 174 x(44)#44
     + 919 x(45)#45 + 150 x(46)#46 + 490 x(47)#47 + 914 x(48)#48 + 222 x(49)#49
     + 143 x(50)#50 + 921 x(51)#51 + 594 x(52)#52 + 397 x(53)#53 + 670 x(54)#54
     + 714 x(55)#55 + 469 x(56)#56 + 663 x(57)#57 + 112 x(58)#58 + 890 x(59)#59
     + 282 x(60)#60 + 371 x(61)#61 + 620 x(62)#62 + 212 x(63)#63 + 887 x(64)#64
     + 159 x(65)#65 + 352 x(66)#66 + x(67)#67 + 691 x(68)#68 + 826 x(69)#69
     + 672 x(70)#70 + 821 x(71)#71 + 796 x(72)#72 + 524 x(73)#73 + 741 x(74)#74
     + 734 x(75)#75 + 359 x(76)#76 + 894 x(77)#77 + 255 x(78)#78 + 714 x(79)#79
     + 860 x(80)#80 + 432 x(81)#81 + 298 x(82)#82 + 488 x(83)#83 + 973 x(84)#84
     + 327 x(85)#85 + 146 x(86)#86 + 115 x(87)#87 + 634 x(88)#88 + 355 x(89)#89
     + 967 x(90)#90 + 69 x(91)#91 + 334 x(92)#92 + 561 x(93)#93 + 822 x(94)#94
     + 146 x(95)#95 + 183 x(96)#96 + 678 x(97)#97 + 677 x(98)#98 + 600 x(99)#99
     <= 13137
 c5: 464 x(0)#0 + 766 x(1)#1 + 484 x(2)#2 + 663 x(3)#3 + 671 x(4)#4
     + 983 x(5)#5 + 404 x(6)#6 + 804 x(7)#7 + 149 x(8)#8 + 641 x(9)#9
     + 897 x(10)#10 + 141 x(11)#11 + 320 x(12)#12 + 602 x(13)#13 + 271 x(14)#14
     + 964 x(15)#15 + 851 x(16)#16 + 810 x(17)#17 + 685 x(18)#18 + 780 x(19)#19
     + 120 x(20)#20 + 379 x(21)#21 + 252 x(22)#22 + 781 x(23)#23 + 827 x(24)#24
     + 271 x(25)#25 + 838 x(26)#26 + 272 x(27)#27 + 751 x(28)#28 + 431 x(29)#29
     + 551 x(30)#30 + 905 x(31)#31 + 620 x(32)#32 + 983 x(33)#33 + 796 x(34)#34
     + 478 x(35)#35 + 935 x(36)#36 + 251 x(37)#37 + 806 x(38)#38 + 67 x(39)#39
     + 447 x(40)#40 + 127 x(41)#41 + 389 x(42)#42 + 172 x(43)#43 + 409 x(44)#44
     + 273 x(45)#45 + 116 x(46)#46 + 959 x(47)#47 + 499 x(48)#48 + 880 x(49)#49
     + 657 x(50)#50 + 591 x(51)#51 + 240 x(52)#52 + 561 x(53)#53 + 56 x(54)#54
     + 938 x(55)#55 + 209 x(56)#56 + 101 x(57)#57 + 812 x(58)#58 + 756 x(59)#59
     + 518 x(60)#60 + 635 x(61)#61 + 133 x(62)#62 + 404 x(63)#63 + 54 x(64)#64
     + 990 x(65)#65 + 193 x(66)#66 + 763 x(67)#67 + 404 x(68)#68 + 511 x(69)#69
     + 58 x(70)#70 + 163 x(71)#71 + 174 x(72)#72 + 354 x(73)#73 + 99 x(74)#74
     + 509 x(75)#75 + 100 x(76)#76 + 640 x(77)#77 + 170 x(78)#78 + 536 x(79)#79
     + 205 x(80)#80 + 759 x(81)#81 + 628 x(82)#82 + 731 x(83)#83 + 778 x(84)#84
     + 138 x(85)#85 + 443 x(86)#86 + 66 x(87)#87 + 407 x(88)#88 + 146 x(89)#89
     + 408 x(90)#90 + 305 x(91)#91 + 580 x(92)#92 + 386 x(93)#93 + 633 x(94)#94
     + 969 x(95)#95 + 215 x(96)#96 + 795 x(97)#97 + 617 x(98)#98 + 620 x(99)#99
     <= 12523
Bounds
 0 <= x(0)#0 <= 1
 0 <= x(1)#1 <= 1
 0 <= x(2)#2 <= 1
 0 <= x(3)#3 <= 1
 0 <= x(4)#4 <= 1
 0 <= x(5)#5 <= 1
 0 <= x(6)#6 <= 1
 0 <= x(7)#7 <= 1
 0 <= x(8)#8 <= 1
 0 <= x(9)#9 <= 1
 0 <= x(10)#10 <= 1
 0 <= x(11)#11 <= 1
 0 <= x(12)#12 <= 1
 0 <= x(13)#13 <= 1
 0 <= x(14)#14 <= 1
 0 <= x(15)#15 <= 1
 0 <= x(16)#16 <= 1
 0 <= x(17)#17 <= 1
 0 <= x(18)#18 <= 1
 0 <= x(19)#19 <= 1
 0 <= x(20)#20 <= 1
 0 <= x(21)#21 <= 1
 0 <= x(22)#22 <= 1
 0 <= x(23)#23 <= 1
 0 <= x(24)#24 <= 1
 0 <= x(25)#25 <= 1
 0 <= x(26)#26 <= 1
 0 <= x(27)#27 <= 1
 0 <= x(28)#28 <= 1
 0 <= x(29)#29 <= 1
 0 <= x(30)#30 <= 1
 0 <= x(31)#31 <= 1
 0 <= x(32)#32 <= 1
 0 <= x(33)#33 <= 1
 0 <= x(34)#34 <= 1
 0 <= x(35)#35 <= 1
 0 <= x(36)#36 <= 1
 0 <= x(37)#37 <= 1
 0 <= x(38)#38 <= 1
 0 <= x(39)#39 <= 1
 0 <= x(40)#40 <= 1
 0 <= x(41)#41 <= 1
 0 <= x(42)#42 <= 1
 0 <= x(43)#43 <= 1
 0 <= x(44)#44 <= 1
 0 <= x(45)#45 <= 1
 0 <= x(46)#46 <= 1
 0 <= x(47)#47 <= 1
 0 <= x(48)#48 <= 1
 0 <= x(49)#49 <= 1
 0 <= x(50)#50 <= 1
 0 <= x(51)#51 <= 1
 0 <= x(52)#52 <= 1
 0 <= x(53)#53 <= 1
 0 <= x(54)#54 <= 1
 0 <= x(55)#55 <= 1
 0 <= x(56)#56 <= 1
 0 <= x(57)#57 <= 1
 0 <= x(58)#58 <= 1
 0 <= x(59)#59 <= 1
 0 <= x(60)#60 <= 1
 0 <= x(61)#61 <= 1
 0 <= x(62)#62 <= 1
 0 <= x(63)#63 <= 1
 0 <= x(64)#64 <= 1
 0 <= x(65)#65 <= 1
 0 <= x(66)#66 <= 1
 0 <= x(67)#67 <= 1
 0 <= x(68)#68 <= 1
 0 <= x(69)#69 <= 1
 0 <= x(70)#70 <= 1
 0 <= x(71)#71 <= 1
 0 <= x(72)#72 <= 1
 0 <= x(73)#73 <= 1
 0 <= x(74)#74 <= 1
 0 <= x(75)#75 <= 1
 0 <= x(76)#76 <= 1
 0 <= x(77)#77 <= 1
 0 <= x(78)#78 <= 1
 0 <= x(79)#79 <= 1
 0 <= x(80)#80 <= 1
 0 <= x(81)#81 <= 1
 0 <= x(82)#82 <= 1
 0 <= x(83)#83 <= 1
 0 <= x(84)#84 <= 1
 0 <= x(85)#85 <= 1
 0 <= x(86)#86 <= 1
 0 <= x(87)#87 <= 1
 0 <= x(88)#88 <= 1
 0 <= x(89)#89 <= 1
 0 <= x(90)#90 <= 1
 0 <= x(91)#91 <= 1
 0 <= x(92)#92 <= 1
 0 <= x(93)#93 <= 1
 0 <= x(94)#94 <= 1
 0 <= x(95)#95 <= 1
 0 <= x(96)#96 <= 1
 0 <= x(97)#97 <= 1
 0 <= x(98)#98 <= 1
 0 <= x(99)#99 <= 1
Generals
 x(0)#0  x(1)#1  x(2)#2  x(3)#3  x(4)#4  x(5)#5  x(6)#6  x(7)#7  x(8)#8 
 x(9)#9  x(10)#10  x(11)#11  x(12)#12  x(13)#13  x(14)#14  x(15)#15  x(16)#16 
 x(17)#17  x(18)#18  x(19)#19  x(20)#20  x(21)#21  x(22)#22  x(23)#23 
 x(24)#24  x(25)#25  x(26)#26  x(27)#27  x(28)#28  x(29)#29  x(30)#30 
 x(31)#31  x(32)#32  x(33)#33  x(34)#34  x(35)#35  x(36)#36  x(37)#37 
 x(38)#38  x(39)#39  x(40)#40  x(41)#41  x(42)#42  x(43)#43  x(44)#44 
 x(45)#45  x(46)#46  x(47)#47  x(48)#48  x(49)#49  x(50)#50  x(51)#51 
 x(52)#52  x(53)#53  x(54)#54  x(55)#55  x(56)#56  x(57)#57  x(58)#58 
 x(59)#59  x(60)#60  x(61)#61  x(62)#62  x(63)#63  x(64)#64  x(65)#65 
 x(66)#66  x(67)#67  x(68)#68  x(69)#69  x(70)#70  x(71)#71  x(72)#72 
 x(73)#73  x(74)#74  x(75)#75  x(76)#76  x(77)#77  x(78)#78  x(79)#79 
 x(80)#80  x(81)#81  x(82)#82  x(83)#83  x(84)#84  x(85)#85  x(86)#86 
 x(87)#87  x(88)#88  x(89)#89  x(90)#90  x(91)#91  x(92)#92  x(93)#93 
 x(94)#94  x(95)#95  x(96)#96  x(97)#97  x(98)#98  x(99)#99 
End
